p edge 62 659
e 1 7
e 1 12
e 1 15
e 1 17
e 1 18
e 1 19
e 1 26
e 1 28
e 1 30
e 1 36
e 1 38
e 1 39
e 1 59
e 1 61
e 2 4
e 2 6
e 2 7
e 2 8
e 2 9
e 2 10
e 2 14
e 2 23
e 2 24
e 2 26
e 2 38
e 2 39
e 2 43
e 2 44
e 2 46
e 2 48
e 2 49
e 2 53
e 3 12
e 3 22
e 3 26
e 3 30
e 3 32
e 3 34
e 3 35
e 3 36
e 3 39
e 3 41
e 3 43
e 3 48
e 3 51
e 3 53
e 3 54
e 3 61
e 3 62
e 4 8
e 4 11
e 4 14
e 4 19
e 4 20
e 4 23
e 4 25
e 4 27
e 4 29
e 4 33
e 4 37
e 4 40
e 4 42
e 4 44
e 4 53
e 4 55
e 4 58
e 4 59
e 5 6
e 5 7
e 5 8
e 5 9
e 5 12
e 5 13
e 5 15
e 5 23
e 5 30
e 5 31
e 5 33
e 5 42
e 5 43
e 5 44
e 5 47
e 5 48
e 5 49
e 5 51
e 5 53
e 5 58
e 5 59
e 6 8
e 6 9
e 6 11
e 6 12
e 6 14
e 6 16
e 6 17
e 6 19
e 6 20
e 6 23
e 6 25
e 6 27
e 6 28
e 6 31
e 6 32
e 6 38
e 6 39
e 6 44
e 6 46
e 6 51
e 6 52
e 6 58
e 6 60
e 6 61
e 7 9
e 7 17
e 7 19
e 7 20
e 7 23
e 7 28
e 7 32
e 7 33
e 7 34
e 7 35
e 7 41
e 7 46
e 7 47
e 7 49
e 7 54
e 7 56
e 7 57
e 7 58
e 7 60
e 7 61
e 8 9
e 8 11
e 8 17
e 8 18
e 8 21
e 8 24
e 8 25
e 8 26
e 8 27
e 8 28
e 8 31
e 8 36
e 8 47
e 8 49
e 8 51
e 8 56
e 9 11
e 9 12
e 9 18
e 9 26
e 9 27
e 9 29
e 9 30
e 9 31
e 9 32
e 9 39
e 9 43
e 9 44
e 9 46
e 9 47
e 9 52
e 9 59
e 9 61
e 10 11
e 10 12
e 10 14
e 10 16
e 10 18
e 10 21
e 10 25
e 10 27
e 10 28
e 10 30
e 10 31
e 10 32
e 10 34
e 10 38
e 10 40
e 10 42
e 10 48
e 10 51
e 10 52
e 10 58
e 10 59
e 10 60
e 10 61
e 10 62
e 11 19
e 11 21
e 11 22
e 11 23
e 11 27
e 11 29
e 11 36
e 11 37
e 11 39
e 11 40
e 11 42
e 11 52
e 11 53
e 11 54
e 11 55
e 11 58
e 11 59
e 11 61
e 12 14
e 12 17
e 12 18
e 12 21
e 12 22
e 12 23
e 12 25
e 12 26
e 12 28
e 12 33
e 12 34
e 12 41
e 12 44
e 12 52
e 12 53
e 12 61
e 13 16
e 13 17
e 13 22
e 13 26
e 13 27
e 13 30
e 13 31
e 13 33
e 13 44
e 13 47
e 13 49
e 13 51
e 13 53
e 13 57
e 13 61
e 14 16
e 14 18
e 14 19
e 14 21
e 14 22
e 14 23
e 14 24
e 14 25
e 14 32
e 14 34
e 14 37
e 14 40
e 14 41
e 14 42
e 14 44
e 14 46
e 14 49
e 14 53
e 14 56
e 14 60
e 14 62
e 15 16
e 15 18
e 15 23
e 15 26
e 15 29
e 15 40
e 15 42
e 15 43
e 15 44
e 15 45
e 15 49
e 15 51
e 15 55
e 15 56
e 15 60
e 16 23
e 16 28
e 16 33
e 16 36
e 16 40
e 16 41
e 16 47
e 16 48
e 16 49
e 16 55
e 16 60
e 17 21
e 17 22
e 17 24
e 17 26
e 17 32
e 17 35
e 17 36
e 17 37
e 17 38
e 17 39
e 17 42
e 17 45
e 17 46
e 17 48
e 17 51
e 17 52
e 17 57
e 17 58
e 17 60
e 17 61
e 17 62
e 18 20
e 18 22
e 18 27
e 18 30
e 18 32
e 18 37
e 18 42
e 18 43
e 18 45
e 18 49
e 18 50
e 18 58
e 18 61
e 18 62
e 19 20
e 19 22
e 19 29
e 19 30
e 19 34
e 19 40
e 19 43
e 19 44
e 19 45
e 19 48
e 19 56
e 19 57
e 19 61
e 19 62
e 20 22
e 20 24
e 20 25
e 20 31
e 20 33
e 20 39
e 20 40
e 20 42
e 20 43
e 20 44
e 20 45
e 20 46
e 20 49
e 20 50
e 20 53
e 20 55
e 20 58
e 20 59
e 20 61
e 20 62
e 21 27
e 21 28
e 21 31
e 21 39
e 21 43
e 21 47
e 21 51
e 21 52
e 21 61
e 22 25
e 22 32
e 22 33
e 22 34
e 22 37
e 22 38
e 22 39
e 22 43
e 22 50
e 22 51
e 22 52
e 22 53
e 22 55
e 22 56
e 22 57
e 22 62
e 23 30
e 23 34
e 23 35
e 23 36
e 23 37
e 23 43
e 23 44
e 23 48
e 23 51
e 23 52
e 23 55
e 23 59
e 23 60
e 23 61
e 24 26
e 24 27
e 24 28
e 24 29
e 24 30
e 24 33
e 24 36
e 24 37
e 24 39
e 24 41
e 24 43
e 24 44
e 24 49
e 24 52
e 24 56
e 24 57
e 24 61
e 25 26
e 25 27
e 25 29
e 25 30
e 25 31
e 25 38
e 25 40
e 25 42
e 25 45
e 25 47
e 25 48
e 25 50
e 25 52
e 25 54
e 25 58
e 25 59
e 26 31
e 26 33
e 26 34
e 26 38
e 26 39
e 26 40
e 26 43
e 26 44
e 26 48
e 26 49
e 26 50
e 26 52
e 26 57
e 26 59
e 26 61
e 27 29
e 27 30
e 27 34
e 27 37
e 27 41
e 27 42
e 27 44
e 27 45
e 27 49
e 27 53
e 27 55
e 27 59
e 27 61
e 27 62
e 28 29
e 28 31
e 28 37
e 28 42
e 28 45
e 28 56
e 28 57
e 28 59
e 28 61
e 29 30
e 29 41
e 29 42
e 29 43
e 29 49
e 29 53
e 29 57
e 29 60
e 29 62
e 30 31
e 30 34
e 30 45
e 30 47
e 30 55
e 30 56
e 30 57
e 30 58
e 31 34
e 31 35
e 31 39
e 31 40
e 31 42
e 31 44
e 31 46
e 31 50
e 31 52
e 31 58
e 31 62
e 32 36
e 32 37
e 32 41
e 32 44
e 32 45
e 32 57
e 32 61
e 32 62
e 33 39
e 33 44
e 33 45
e 33 47
e 33 48
e 33 50
e 33 51
e 33 52
e 33 54
e 33 55
e 33 56
e 33 58
e 33 59
e 33 60
e 34 35
e 34 37
e 34 46
e 34 49
e 34 50
e 34 61
e 34 62
e 35 38
e 35 39
e 35 41
e 35 42
e 35 43
e 35 44
e 35 45
e 35 49
e 35 50
e 35 52
e 35 55
e 35 56
e 35 57
e 35 58
e 35 62
e 36 39
e 36 42
e 36 43
e 36 47
e 36 54
e 36 59
e 36 60
e 36 62
e 37 39
e 37 40
e 37 41
e 37 42
e 37 43
e 37 45
e 37 47
e 37 48
e 37 49
e 37 51
e 37 53
e 38 39
e 38 42
e 38 44
e 38 45
e 38 49
e 38 51
e 38 55
e 38 60
e 38 62
e 39 42
e 39 43
e 39 46
e 39 48
e 39 51
e 39 53
e 39 61
e 39 62
e 40 46
e 40 47
e 40 48
e 40 49
e 40 54
e 40 57
e 40 58
e 40 60
e 40 62
e 41 42
e 41 51
e 41 52
e 41 55
e 41 56
e 41 58
e 41 60
e 42 43
e 42 50
e 42 52
e 42 53
e 42 54
e 42 56
e 42 62
e 43 45
e 43 48
e 43 50
e 43 53
e 43 54
e 43 55
e 43 56
e 43 57
e 44 45
e 44 47
e 44 50
e 44 54
e 44 56
e 45 50
e 45 54
e 45 55
e 45 56
e 45 57
e 45 59
e 45 60
e 46 54
e 46 56
e 46 58
e 46 59
e 47 54
e 47 55
e 47 58
e 47 59
e 47 62
e 48 50
e 48 51
e 48 54
e 49 50
e 49 56
e 49 58
e 49 60
e 50 52
e 50 53
e 50 58
e 50 60
e 50 62
e 51 52
e 51 54
e 51 55
e 51 60
e 51 61
e 51 62
e 52 59
e 52 60
e 53 54
e 54 55
e 54 59
e 54 60
e 55 60
e 56 57
e 56 59
e 56 60
e 56 61
e 57 60
e 57 62
e 58 62
e 59 62
e 60 61
e 60 62
